SPARKNaCl/why3-z3/sparknacl-sign.adb_748_14_precondition2_1.smt2
;; produced by z3_gnatprove.drv ;;
(set-info :smt-lib-version 2.5)
(set-info :source |VC generated by SPARK 2014|)
(set-info :category industrial)
(set-info :status unknown)
;;; generated by SMT-LIB2 driver
;;; SMT-LIB2 driver: bit-vectors, common part
;;; SMT-LIB2: integer arithmetic
(declare-datatypes ()
  ((int__ref (int__refqtmk (int__content Int)))))

(declare-sort byte 0)

;; "to_rep"
(declare-fun to_rep (byte) (_ BitVec 8))

;; "of_rep"
(declare-fun of_rep ((_ BitVec 8)) byte)

;; "inversion_axiom"
(assert
  (forall ((x byte)) (! (= (of_rep (to_rep x)) x) :pattern ((to_rep x)) )))

;; "range_axiom"
(assert true)

;; "coerce_axiom"
(assert
  (forall ((x (_ BitVec 8)))
    (! (= (to_rep (of_rep x)) x) :pattern ((to_rep (of_rep x))) )))

(declare-sort map1 0)

(declare-datatypes ()
  ((map__ref (map__refqtmk (map__content map1)))))

;; "has_bounds"
(declare-fun has_bounds (map1
  Int
  Int) Bool)

;; "get"
(declare-fun get (map1
  Int) byte)

(declare-sort i64 0)

;; "i64'int"
(declare-fun i64qtint (i64) Int)

;; "i64'axiom"
(assert
  (forall ((i i64))
    (and
      (<= (- 9223372036854775808) (i64qtint i))
      (<= (i64qtint i) 9223372036854775807))))

;; "in_range"
(define-fun in_range ((x Int)) Bool
  (and (<= (- 9223372036854775808) x) (<= x 9223372036854775807)))

;; "to_rep"
(define-fun to_rep1 ((x i64)) Int
  (i64qtint x))

;; "of_rep"
(declare-fun of_rep1 (Int) i64)

;; "inversion_axiom"
(assert
  (forall ((x i64)) (! (= (of_rep1 (to_rep1 x)) x) :pattern ((to_rep1 x)) )))

;; "range_axiom"
(assert
  (forall ((x i64)) (! (in_range (to_rep1 x)) :pattern ((to_rep1 x)) )))

;; "coerce_axiom"
(assert
  (forall ((x Int))
    (! (=> (in_range x) (= (to_rep1 (of_rep1 x)) x)) :pattern ((to_rep1
                                                                 (of_rep1 x))) )))

(declare-sort map2 0)

(declare-datatypes ()
  ((map__ref1 (map__refqtmk1 (map__content1 map2)))))

;; "has_bounds"
(declare-fun has_bounds1 (map2
  Int
  Int) Bool)

;; "get"
(declare-fun get1 (map2
  Int) i64)

;; "set"
(declare-fun set (map2
  Int
  i64) map2)

;; "set_eq"
(assert
  (forall ((a map2) (i Int) (v i64))
    (! (= (get1 (set a i v) i) v) :pattern ((set a i v)) )))

;; "set_neq"
(assert
  (forall ((a map2) (i Int) (v i64))
    (! (forall ((j Int))
         (! (=> (not (= i j)) (= (get1 (set a i v) j) (get1 a j))) :pattern (
         (get1
           a
           j)) :pattern ((get1 (set a i v) j)) )) :pattern ((set a i v)) )))

;; "set_has_bounds"
(assert
  (forall ((a map2) (i Int) (f Int) (l Int) (v i64))
    (! (=>
         (and (<= f i) (<= i l))
         (=> (has_bounds1 a f l) (has_bounds1 (set a i v) f l))) :pattern (
    (has_bounds1
      (set a i v)
      f
      l)) )))

(declare-sort tinteger_32B 0)

;; "tinteger_32B'int"
(declare-fun tinteger_32Bqtint (tinteger_32B) Int)

;; "tinteger_32B'axiom"
(assert
  (forall ((i tinteger_32B))
    (and
      (<= (- 2147483648) (tinteger_32Bqtint i))
      (<= (tinteger_32Bqtint i) 2147483647))))

;; "in_range"
(define-fun in_range1 ((x Int)) Bool
  (and (<= (- 2147483648) x) (<= x 2147483647)))

;; "to_rep"
(define-fun to_rep2 ((x tinteger_32B)) Int
  (tinteger_32Bqtint x))

;; "of_rep"
(declare-fun of_rep2 (Int) tinteger_32B)

;; "inversion_axiom"
(assert
  (forall ((x tinteger_32B))
    (! (= (of_rep2 (to_rep2 x)) x) :pattern ((to_rep2 x)) )))

;; "range_axiom"
(assert
  (forall ((x tinteger_32B))
    (! (in_range1 (to_rep2 x)) :pattern ((to_rep2 x)) )))

;; "coerce_axiom"
(assert
  (forall ((x Int))
    (! (=> (in_range1 x) (= (to_rep2 (of_rep2 x)) x)) :pattern ((to_rep2
                                                                  (of_rep2 x))) )))

;; "in_range"
(define-fun in_range2 ((x Int)) Bool
  (and (<= 0 x) (<= x 2147483647)))

(declare-datatypes ()
  ((t (tqtmk (rec__first tinteger_32B)(rec__last tinteger_32B)))))

;; "dynamic_property"
(define-fun dynamic_property ((range_first Int) (range_last Int) (low Int) (high Int)) Bool
  (and
    (in_range1 low)
    (and
      (in_range1 high)
      (=> (<= low high) (and (in_range2 low) (in_range2 high))))))

(declare-datatypes ()
  ((us_t (us_tqtmk (elts map1)(rt t)))))

;; "first"
(define-fun first ((a us_t)) Int
  (to_rep2 (rec__first (rt a))))

;; "last"
(define-fun last ((a us_t)) Int
  (to_rep2 (rec__last (rt a))))

;; "well_formed"
(define-fun well_formed ((a us_t)) Bool
  (has_bounds
    (elts a)
    (to_rep2 (rec__first (rt a)))
    (to_rep2 (rec__last (rt a)))))

(declare-const m us_t)

;; "dynamic_invariant"
(define-fun dynamic_invariant ((temp___expr_486 us_t) (temp___is_init_482 Bool) (temp___skip_constant_483 Bool) (temp___do_toplevel_484 Bool) (temp___do_typ_inv_485 Bool)) Bool
  (and
    (=>
      (not (= temp___skip_constant_483 true))
      (dynamic_property
        0
        2147483647
        (first temp___expr_486)
        (last temp___expr_486)))
    (well_formed temp___expr_486)))

;; "in_range"
(define-fun in_range3 ((x Int)) Bool
  (and (<= 0 x) (<= x 255)))

;; "temp_____aggregate_def_2138"
(declare-fun temp_____aggregate_def_2138 (Int) map2)

(declare-const rliteral i64)

;; "rliteral_axiom"
(assert (= (i64qtint rliteral) 0))

(declare-const r map1)

(declare-const x map2)

;; "x'unused"
(define-fun xqtunused () map__ref1
  (map__refqtmk1 x))

;; "r'unused"
(define-fun rqtunused () map__ref
  (map__refqtmk r))

;; "Assume"
(assert (dynamic_invariant m true false true true))

;; "Assume"
(assert true)

;; "Assume"
(assert (has_bounds r 0 63))

;; "Assume"
(assert true)

;; "Assume"
(assert (has_bounds1 x 0 63))

;; "map__content'result'unused"
(define-fun map__contentqtresultqtunused () map1
  r)

(declare-const r1 map1)

;; "r'unused"
(define-fun rqtunused1 () map__ref
  (map__refqtmk r1))

;; "H"
(assert (has_bounds r1 0 63))

;; "H"
(assert true)

;; "H"
(assert true)

(declare-const temp___2142 map2)

;; "H"
(assert (has_bounds1 temp___2142 0 63))

;; "H"
(assert
  (forall ((temp___2141 Int))
    (! (=>
         (and (<= 0 temp___2141) (<= temp___2141 63))
         (= (get1 temp___2142 temp___2141) rliteral)) :pattern ((get1
                                                                  temp___2142
                                                                  temp___2141)) )))

;; "H"
(assert (= temp___2142 (temp_____aggregate_def_2138 0)))

;; "temp_____aggregate_def_2138'result'unused"
(define-fun temp_____aggregate_def_2138qtresultqtunused () map2
  temp___2142)

(declare-const x1 map2)

;; "x'unused"
(define-fun xqtunused1 () map__ref1
  (map__refqtmk1 x1))

;; "H"
(assert (= x1 temp___2142))

(declare-const x2 map2)

;; "x'unused"
(define-fun xqtunused2 () map__ref1
  (map__refqtmk1 x2))

(declare-const i Int)

(declare-const iqtunused int__ref)

;; "H"
(assert (= iqtunused (int__refqtmk i)))

;; "H"
(assert (= i 0))

(declare-const int__contentqtresultqtunused Int)

;; "H"
(assert (= int__contentqtresultqtunused i))

(declare-const o Bool)

;; "H"
(assert (= o (ite (<= i 63) true false)))

(declare-const infix_lseqqtresultqtunused Bool)

;; "H"
(assert (= infix_lseqqtresultqtunused o))

(declare-const int__contentqtresultqtunused1 Int)

;; "H"
(assert (= int__contentqtresultqtunused1 i))

(declare-const o1 Bool)

;; "H"
(assert (= o1 (ite (<= 0 i) true false)))

(declare-const infix_lseqqtresultqtunused1 Bool)

;; "H"
(assert (= infix_lseqqtresultqtunused1 o1))

(declare-const o2 Bool)

;; "H"
(assert (= o2 (and o1 o)))

(declare-const andbqtresultqtunused Bool)

;; "H"
(assert (= andbqtresultqtunused o2))

(declare-const temp___loop_entry_2148qtunused map2)

(declare-const map__contentqtresultqtunused1 map2)

(declare-const int__contentqtresultqtunused2 Int)

(declare-const map__contentqtresultqtunused2 map1)

(declare-const o3 byte)

(declare-const getqtresultqtunused byte)

(declare-const o4 (_ BitVec 8))

(declare-const to_repqtresultqtunused (_ BitVec 8))

(declare-const o5 Int)

(declare-const t_intqtresultqtunused Int)

(declare-const o6 i64)

(declare-const of_repqtresultqtunused i64)

(declare-const int__contentqtresultqtunused3 Int)

(declare-const map__contentqtresultqtunused3 map2)

(declare-const o7 map2)

(declare-const setqtresultqtunused map2)

(declare-const x3 map2)

(declare-const xqtunused3 map__ref1)

(declare-const usfqtunused Bool)

(declare-const anyqtresultqtunused Bool)

(declare-const i1 Int)

(declare-const iqtunused1 int__ref)

(declare-const int__contentqtresultqtunused4 Int)

(declare-const infix_eqqtresultqtunused Bool)

(declare-const usf Int)

(declare-const anyqtresultqtunused1 Int)

(declare-const kqtunused Int)

(declare-const int__contentqtresultqtunused5 Int)

(declare-const o8 Bool)

(declare-const infix_lseqqtresultqtunused2 Bool)

(declare-const o9 Bool)

(declare-const infix_lseqqtresultqtunused3 Bool)

(declare-const andbqtresultqtunused1 Bool)

;; "H"
(assert
  (ite (= o2 true)
    (and
      (= temp___loop_entry_2148qtunused x1)
      (and
        (= map__contentqtresultqtunused1 x1)
        (and
          (= int__contentqtresultqtunused2 i)
          (and
            (= map__contentqtresultqtunused2 r1)
            (and
              (= o3 (get r1 i))
              (and
                (= getqtresultqtunused o3)
                (and
                  (= (to_rep o3) o4)
                  (and
                    (= to_repqtresultqtunused o4)
                    (and
                      (= o5 (bv2int o4))
                      (and
                        (= t_intqtresultqtunused o5)
                        (and
                          (= (to_rep1 o6) o5)
                          (and
                            (= of_repqtresultqtunused o6)
                            (and
                              (= int__contentqtresultqtunused3 i)
                              (and
                                (= map__contentqtresultqtunused3 x1)
                                (and
                                  (= o7 (set x1 i o6))
                                  (and
                                    (= setqtresultqtunused o7)
                                    (and
                                      (= xqtunused3 (map__refqtmk1 x3))
                                      (and
                                        (= x3 o7)
                                        (and
                                          (and
                                            (= anyqtresultqtunused1 usf)
                                            (and
                                              (= kqtunused usf)
                                              (and
                                                (= int__contentqtresultqtunused5 
                                                i)
                                                (and
                                                  (= o8 (ite (<= usf 
                                                          i)
                                                          true
                                                          false))
                                                  (and
                                                    (= infix_lseqqtresultqtunused2 
                                                    o8)
                                                    (and
                                                      (= o9 (ite (<= 0 
                                                              usf)
                                                              true
                                                              false))
                                                      (and
                                                        (= infix_lseqqtresultqtunused3 
                                                        o9)
                                                        (= andbqtresultqtunused1 (and 
                                                        o9 o8)))))))))
                                          (and
                                            (= usfqtunused (ite (forall 
                                                                  ((k Int))
                                                                  (=>
                                                                    (and
                                                                    (<= 0 k)
                                                                    (<= k 
                                                                    i))
                                                                    (in_range3
                                                                    (to_rep1
                                                                    (get1
                                                                    x3
                                                                    k)))))
                                                             true
                                                             false))
                                            (and
                                              (= anyqtresultqtunused 
                                              (ite (forall ((k Int))
                                                     (=>
                                                       (and
                                                         (<= 0 k)
                                                         (<= k i))
                                                       (in_range3
                                                         (to_rep1
                                                           (get1 x3 k)))))
                                                true
                                                false))
                                              (and
                                                (= iqtunused1 (int__refqtmk
                                                                i1))
                                                (and
                                                  (forall ((k Int))
                                                    (=>
                                                      (and
                                                        (<= 0 k)
                                                        (<= k i1))
                                                      (in_range3
                                                        (to_rep1 (get1 x2 k)))))
                                                  (and
                                                    (= (and (ite (and
                                                                   (has_bounds1
                                                                    x2
                                                                    0
                                                                    63)
                                                                   (forall 
                                                                    ((temp___2149 Int))
                                                                    (=>
                                                                    (and
                                                                    (<= 0 temp___2149)
                                                                    (<= temp___2149 63))
                                                                    (=>
                                                                    (or
                                                                    (< 63 temp___2149)
                                                                    (or
                                                                    (< temp___2149 0)
                                                                    (< 
                                                                    i1 temp___2149)))
                                                                    (= 
                                                                    (get1
                                                                    x2
                                                                    temp___2149) 
                                                                    (get1
                                                                    x1
                                                                    temp___2149))))))
                                                              true
                                                              false) 
                                                    (ite (and
                                                           (<= 0 i1)
                                                           (<= i1 63))
                                                      true
                                                      false)) true)
                                                    (and
                                                      (= int__contentqtresultqtunused4 
                                                      i1)
                                                      (and
                                                        (= infix_eqqtresultqtunused 
                                                        (ite (= i1 63)
                                                          true
                                                          false))
                                                        (= i1 63)))))))))))))))))))))))))))
    (= x2 x1)))

;; "Assert"
(assert
  (forall ((k Int))
    (=> (and (<= 0 k) (<= k 63)) (in_range3 (to_rep1 (get1 x2 k))))))

;; "map__content'result'unused"
(define-fun map__contentqtresultqtunused4 () map2
  x2)

(declare-const k Int)

;; "H"
(assert (<= 0 k))

;; "H"
(assert (<= k 63))

;; "temp___723"
(define-fun temp___723 () Int
  (to_rep1 (get1 x2 k)))

;; Goal "def'vc"
;; File "sparknacl-sign.adb", line 88, characters 0-0
(assert
  (not (<= temp___723 2081055)))

(check-sat)
